letting n =  10
letting blocks =  [[1, 5], [1, 8], [1, 10], [2, 1], [2, 7], [2, 9], [3, 4], [3, 6], [3, 7], [3, 8], [4, 2], [4, 8], [5, 1], [5, 3], [5, 5], [5, 7], [5, 8], [5, 9], [6, 1], [6, 2], [6, 3], [6, 4], [6, 7], [6, 9], [7, 1], [7, 2], [7, 3], [7, 4], [7, 8], [8, 1], [8, 2], [8, 9], [9, 2], [9, 5], [9, 7], [10, 3], [10, 8], [10, 10]]
